100
1000
200
0 0
34 26
34 26
34 26
34 26
34 26
34 26
34 26
34 26
34 26
34 26
34 26
34 26
34 26
34 26
34 26
34 26
34 26
34 26
34 26
34 26
-28 20
-28 20
-28 20
-28 20
-28 20
-28 20
-28 20
-28 20
-28 20
-28 20
-28 20
-28 20
-28 20
-28 20
-28 20
-28 20
-28 20
-28 20
-28 20
-28 20
-19 -37
-19 -37
-19 -37
-19 -37
-19 -37
-19 -37
-19 -37
-19 -37
-19 -37
-19 -37
-19 -37
-19 -37
-19 -37
-19 -37
-19 -37
-19 -37
-19 -37
-19 -37
-19 -37
-19 -37
-16 18
-16 18
-16 18
-16 18
-16 18
-16 18
-16 18
-16 18
-16 18
-16 18
-16 18
-16 18
-16 18
-16 18
-16 18
-16 18
-16 18
-16 18
-16 18
-16 18
-19 24
-19 24
-19 24
-19 24
-19 24
-19 24
-19 24
-19 24
-19 24
-19 24
-19 24
-19 24
-19 24
-19 24
-19 24
-19 24
-19 24
-19 24
-19 24
-19 24
32 -19
-32 23
-1 10
-19 4
-11 -34
33 -4
17 -17
-28 15
27 -8
-36 33
12 -33
-13 -40
-13 -25
34 -40
-31 -29
-10 -10
17 7
34 -26
-15 14
19 -4
32 -19
-32 23
-1 10
-19 4
-11 -34
33 -4
17 -17
-28 15
27 -8
-36 33
12 -33
-13 -40
-13 -25
34 -40
-31 -29
-10 -10
17 7
34 -26
-15 14
19 -4
32 -19
-32 23
-1 10
-19 4
-11 -34
33 -4
17 -17
-28 15
27 -8
-36 33
12 -33
-13 -40
-13 -25
34 -40
-31 -29
-10 -10
17 7
34 -26
-15 14
19 -4
32 -19
-32 23
-1 10
-19 4
-11 -34
33 -4
17 -17
-28 15
27 -8
-36 33
12 -33
-13 -40
-13 -25
34 -40
-31 -29
-10 -10
17 7
34 -26
-15 14
19 -4
32 -19
-32 23
-1 10
-19 4
-11 -34
33 -4
17 -17
-28 15
27 -8
-36 33
12 -33
-13 -40
-13 -25
34 -40
-31 -29
-10 -10
17 7
34 -26
-15 14
19 -4
0 0 
56
56
55
57
56
52
53
53
56
56
53
54
56
60
60
59
56
52
55
56
51
51
57
56
51
56
57
56
52
52
59
54
60
55
56
53
56
60
60
52
51
57
57
51
56
60
55
57
52
52
55
51
56
56
56
56
51
54
56
57
56
52
56
53
59
59
54
54
55
52
56
51
59
57
52
55
53
51
59
55
56
60
52
59
52
60
53
55
57
52
51
59
57
56
59
53
52
53
51
60
56
56
55
57
56
52
53
53
56
56
53
54
56
60
60
59
56
52
55
56
51
51
57
56
51
56
57
56
52
52
59
54
60
55
56
53
56
60
60
52
51
57
57
51
56
60
55
57
52
52
55
51
56
56
56
56
51
54
56
57
56
52
56
53
59
59
54
54
55
52
56
51
59
57
52
55
53
51
59
55
56
60
52
59
52
60
53
55
57
52
51
59
57
56
59
53
52
53
51
60
